NAME : gil262
COMMENT : 262-city problem (Gillet/Johnson)
TYPE : TSP
DIMENSION : 262
EDGE_WEIGHT_TYPE : EUC_2D
NODE_COORD_SECTION
1 -99 -97
2 -59 50
3 0 14
4 -17 -66
5 -69 -19
6 31 12
7 5 -41
8 -12 10
9 -64 70
10 -12 85
11 -18 64
12 -77 -16
13 -53 88
14 83 -24
15 24 41
16 17 21
17 42 96
18 -65 0
19 -47 -26
20 85 36
21 -35 -54
22 54 -21
23 64 -17
24 55 89
25 17 -25
26 -61 66
27 -61 26
28 17 -72
29 79 38
30 -62 -2
31 -90 -68
32 52 66
33 -54 -50
34 8 -84
35 37 -90
36 -83 49
37 35 -1
38 7 59
39 12 48
40 57 95
41 92 28
42 -3 97
43 -7 52
44 42 -15
45 77 -43
46 59 -49
47 25 91
48 69 -19
49 -82 -14
50 74 -70
51 69 59
52 29 33
53 -97 9
54 -58 9
55 28 93
56 7 73
57 -28 73
58 -76 55
59 41 42
EOF
